data;


param d:= 100;
param r:=5;
param p:=0.700000;
param M:=1000;
param U:=
         1         1       -5.888924e-01
         2         1       -4.742005e-01
         3         1       -7.964255e-03
         4         1       -1.168339e+00
         5         1       -1.829862e-01
         6         1       -2.335735e+00
         7         1        8.446088e-01
         8         1       -1.234311e+00
         9         1        1.703550e+00
        10         1        1.208649e+00
        11         1        1.319277e+00
        12         1       -1.579829e-01
        13         1       -7.982203e-01
        14         1        8.088062e-01
        15         1        1.739947e+00
        16         1       -5.835863e-02
        17         1       -9.233627e-01
        18         1       -1.914818e+00
        19         1        6.621164e-02
        20         1       -7.271422e-01
        21         1        3.879901e-01
        22         1       -1.018942e+00
        23         1        4.532871e-01
        24         1       -2.307427e-01
        25         1        7.086694e-01
        26         1       -1.322890e+00
        27         1        1.616471e-01
        28         1       -9.933531e-01
        29         1       -1.116952e+00
        30         1        3.937125e-01
        31         1       -8.371108e-03
        32         1        1.251485e+00
        33         1        8.372013e-01
        34         1        7.375250e-02
        35         1        1.686543e+00
        36         1       -1.404740e+00
        37         1       -9.319678e-01
        38         1       -5.539414e-01
        39         1       -9.780916e-01
        40         1        4.560098e-01
        41         1       -1.352376e+00
        42         1        2.248902e+00
        43         1        5.653206e-01
        44         1        1.684409e+00
        45         1       -2.120920e-01
        46         1        3.330236e-01
        47         1        1.489501e+00
        48         1        1.954249e-01
        49         1        1.208958e-01
        50         1        8.342535e-01
        51         1        6.016605e-01
        52         1        1.256110e+00
        53         1       -1.477738e+00
        54         1        1.752402e+00
        55         1        1.511081e-02
        56         1       -1.232197e+00
        57         1       -1.386301e+00
        58         1        1.335695e+00
        59         1       -1.080292e+00
        60         1       -1.349239e+00
        61         1       -8.216371e-01
        62         1        8.658442e-01
        63         1        6.549897e-01
        64         1        1.389400e+00
        65         1        3.689916e-01
        66         1        3.497885e-01
        67         1        9.772447e-01
        68         1        3.997145e-01
        69         1       -1.461054e+00
        70         1        1.312936e+00
        71         1       -1.876357e+00
        72         1       -1.644350e+00
        73         1       -8.112261e-01
        74         1       -3.999864e-01
        75         1       -1.091347e+00
        76         1        1.307319e+00
        77         1        2.157159e-02
        78         1       -2.368578e-01
        79         1        2.120242e+00
        80         1       -1.633849e-01
        81         1       -1.064058e+00
        82         1       -7.108225e-01
        83         1        4.632949e-01
        84         1       -1.865781e-01
        85         1        1.630438e+00
        86         1        8.371468e-01
        87         1        3.453062e-01
        88         1       -1.850426e-01
        89         1       -1.617889e+00
        90         1        1.187846e+00
        91         1       -3.223203e-02
        92         1        1.625285e-01
        93         1       -9.835598e-01
        94         1        1.237165e-01
        95         1        5.429506e-01
        96         1        1.027689e+00
        97         1       -1.784298e+00
        98         1       -4.996163e-01
        99         1        4.239981e-01
       100         1       -2.160229e-01
         1         2       -1.099202e+00
         2         2        9.660987e-01
         3         2       -9.936085e-01
         4         2       -1.229086e+00
         5         2        1.139100e-01
         6         2        7.576570e-01
         7         2       -1.201366e-01
         8         2        1.079492e+00
         9         2       -1.342071e-01
        10         2        2.514446e+00
        11         2       -9.537637e-02
        12         2       -9.682320e-01
        13         2       -1.701488e-02
        14         2       -9.087564e-01
        15         2       -1.528575e+00
        16         2       -1.736453e+00
        17         2        3.147494e-01
        18         2        8.936643e-01
        19         2        5.959251e-01
        20         2        4.499419e-02
        21         2       -1.552967e+00
        22         2       -5.224910e-01
        23         2        3.996230e-01
        24         2        3.370376e-01
        25         2       -5.814786e-01
        26         2        2.856444e-01
        27         2        1.320659e+00
        28         2        1.115011e+00
        29         2       -8.437848e-01
        30         2        1.018665e+00
        31         2        4.156619e-01
        32         2        9.332360e-01
        33         2        1.037858e+00
        34         2        4.505298e-03
        35         2        1.140599e+00
        36         2       -1.045177e+00
        37         2       -1.029529e-01
        38         2        4.910813e-01
        39         2        4.924734e-01
        40         2        9.247230e-01
        41         2        1.211132e-01
        42         2        6.063961e-01
        43         2       -9.693124e-01
        44         2        2.247367e+00
        45         2        1.024812e+00
        46         2       -7.044782e-01
        47         2       -1.624431e+00
        48         2        2.607201e+00
        49         2       -1.118932e+00
        50         2       -1.046113e+00
        51         2        8.121390e-01
        52         2       -5.424890e-01
        53         2        1.801056e+00
        54         2        1.173391e+00
        55         2        6.216946e-01
        56         2        7.917303e-01
        57         2       -2.696632e-01
        58         2       -1.768530e-01
        59         2       -4.776692e-01
        60         2       -2.510488e-02
        61         2       -1.696096e+00
        62         2        8.021265e-01
        63         2       -8.856918e-01
        64         2       -1.248816e+00
        65         2       -6.922199e-02
        66         2        2.012440e+00
        67         2       -8.476967e-01
        68         2       -2.040712e+00
        69         2       -7.742476e-01
        70         2       -5.298980e-01
        71         2        9.721285e-01
        72         2        1.845725e+00
        73         2       -4.901313e-01
        74         2       -3.458669e-01
        75         2        7.013662e-02
        76         2       -9.505822e-03
        77         2        1.462523e+00
        78         2       -2.803921e-01
        79         2       -3.576171e-01
        80         2        4.125948e-01
        81         2       -5.748662e-02
        82         2       -4.815074e-01
        83         2        1.550375e+00
        84         2       -1.918946e+00
        85         2        1.588764e+00
        86         2       -2.085089e+00
        87         2       -4.282975e-01
        88         2       -3.502965e-01
        89         2        7.236660e-01
        90         2       -1.296247e-01
        91         2        6.563275e-01
        92         2        7.090949e-01
        93         2        6.845529e-01
        94         2        1.020525e+00
        95         2       -1.799040e+00
        96         2       -5.663857e-01
        97         2        2.299681e-01
        98         2       -1.952344e-01
        99         2       -6.254270e-01
       100         2        5.729598e-01
         1         3       -1.837919e+00
         2         3        1.481730e-01
         3         3       -2.885957e-02
         4         3        1.720485e-01
         5         3       -8.941213e-01
         6         3        4.571766e-01
         7         3       -5.189146e-01
         8         3        7.104148e-01
         9         3        2.408804e-02
        10         3        1.516916e+00
        11         3       -2.379112e-01
        12         3        9.046499e-01
        13         3        1.175578e+00
        14         3       -7.186580e-01
        15         3        2.838041e-01
        16         3        6.115107e-01
        17         3        4.397289e-01
        18         3       -7.093495e-01
        19         3        2.881269e-01
        20         3        2.668857e-02
        21         3        7.445176e-01
        22         3       -1.085946e+00
        23         3        2.034933e-01
        24         3       -1.790421e+00
        25         3        1.620092e-01
        26         3        1.691604e+00
        27         3       -1.322642e+00
        28         3        3.622482e-01
        29         3       -8.061197e-01
        30         3       -1.051133e+00
        31         3       -3.434852e-02
        32         3       -5.397559e-02
        33         3       -4.957485e-01
        34         3       -3.404325e-01
        35         3        2.155463e-01
        36         3       -3.638554e-01
        37         3        1.385433e-01
        38         3       -1.154253e+00
        39         3       -1.277338e+00
        40         3        1.367038e+00
        41         3       -1.328690e+00
        42         3        1.621552e+00
        43         3       -1.163230e+00
        44         3        1.076436e+00
        45         3       -5.967316e-01
        46         3        1.180938e+00
        47         3        3.453100e-01
        48         3        4.082146e-01
        49         3        2.501206e+00
        50         3        7.456154e-01
        51         3        9.397956e-01
        52         3       -1.235594e+00
        53         3       -8.085778e-01
        54         3        1.609157e+00
        55         3        1.547197e+00
        56         3       -2.370761e-01
        57         3       -1.519335e-01
        58         3       -7.400445e-01
        59         3       -7.798900e-01
        60         3       -1.389131e+00
        61         3        5.958900e-01
        62         3       -3.617853e-01
        63         3       -6.161312e-01
        64         3       -4.841457e-01
        65         3       -1.243833e+00
        66         3        1.291673e+00
        67         3        9.188393e-01
        68         3        1.083717e+00
        69         3       -1.238177e+00
        70         3        1.368808e+00
        71         3       -2.245006e+00
        72         3       -1.134301e+00
        73         3        7.658042e-01
        74         3       -1.626413e-01
        75         3        5.413926e-01
        76         3        2.045572e+00
        77         3        1.147287e-01
        78         3       -4.828599e-02
        79         3       -7.329865e-01
        80         3       -6.449529e-02
        81         3       -3.112130e-01
        82         3        9.073068e-01
        83         3        2.211006e+00
        84         3        3.998589e-01
        85         3        8.475615e-01
        86         3       -5.589686e-01
        87         3        2.014720e+00
        88         3       -8.628997e-02
        89         3       -1.758205e+00
        90         3        2.381569e-01
        91         3       -1.381476e+00
        92         3        6.495085e-02
        93         3        9.619816e-01
        94         3        1.009927e+00
        95         3       -1.331967e-01
        96         3       -1.041453e+00
        97         3        1.112819e-01
        98         3       -2.160325e+00
        99         3        3.512647e-01
       100         3       -5.776246e-01
         1         4        1.601479e+00
         2         4       -1.380203e+00
         3         4       -4.969624e-01
         4         4        7.704688e-01
         5         4        4.074644e-01
         6         4        1.625642e-01
         7         4        1.434320e+00
         8         4        4.055642e-01
         9         4        2.532244e-01
        10         4        5.830835e-01
        11         4        5.260045e-01
        12         4        2.175205e+00
        13         4       -1.040816e-01
        14         4       -1.000596e+00
        15         4       -3.955006e-01
        16         4        3.568357e-01
        17         4        1.281355e+00
        18         4        1.775353e-02
        19         4        7.481344e-01
        20         4       -7.926223e-01
        21         4       -4.994879e-01
        22         4        4.577970e-01
        23         4        1.141580e-01
        24         4        2.402537e+00
        25         4        2.937818e-01
        26         4        6.629043e-01
        27         4       -6.888809e-01
        28         4       -5.513024e-01
        29         4       -1.512895e+00
        30         4       -2.273942e-01
        31         4       -7.303864e-02
        32         4        1.972427e+00
        33         4       -4.031082e-01
        34         4        8.729930e-02
        35         4        5.587046e-02
        36         4        6.110922e-01
        37         4       -2.028705e+00
        38         4        1.886992e-01
        39         4        5.833294e-01
        40         4       -5.974588e-01
        41         4        2.417071e-01
        42         4        2.197937e-01
        43         4        6.542829e-01
        44         4        1.407529e+00
        45         4       -5.633339e-01
        46         4        6.914884e-01
        47         4        9.216376e-01
        48         4       -1.247435e+00
        49         4        2.854295e-02
        50         4       -9.288819e-01
        51         4       -6.127349e-01
        52         4       -1.132454e+00
        53         4        5.675102e-01
        54         4        4.752649e-01
        55         4        4.263169e-02
        56         4        7.859348e-01
        57         4       -1.913559e+00
        58         4        2.545557e+00
        59         4       -2.195714e+00
        60         4       -6.774177e-01
        61         4        7.808606e-01
        62         4        2.450884e-01
        63         4       -2.544408e-01
        64         4       -9.752638e-01
        65         4        1.462645e+00
        66         4       -5.875107e-01
        67         4        1.086450e+00
        68         4       -4.984829e-01
        69         4        3.884492e-01
        70         4        6.253635e-01
        71         4        4.005339e-01
        72         4        8.430873e-01
        73         4        1.218774e+00
        74         4       -1.617436e+00
        75         4       -3.816449e-01
        76         4        1.147627e+00
        77         4       -6.905306e-01
        78         4        6.100095e-01
        79         4       -7.416368e-01
        80         4        1.263615e+00
        81         4        1.104447e-01
        82         4       -2.808507e-01
        83         4       -7.077058e-01
        84         4       -8.833998e-01
        85         4        8.067273e-01
        86         4        1.521587e+00
        87         4       -1.759836e-01
        88         4        1.566156e-01
        89         4       -1.340040e+00
        90         4        4.392812e-02
        91         4        8.212581e-01
        92         4       -1.414006e+00
        93         4       -2.502281e-01
        94         4       -3.030413e-01
        95         4       -8.698573e-01
        96         4        9.171659e-01
        97         4        1.304399e+00
        98         4       -4.939440e-01
        99         4       -2.116470e-01
       100         4       -1.155468e-01
         1         5       -1.499360e-01
         2         5       -3.746852e-01
         3         5       -4.494898e-01
         4         5        1.058253e+00
         5         5       -3.662347e-01
         6         5        8.340678e-02
         7         5        4.463987e-01
         8         5       -3.038557e-01
         9         5        3.308310e-01
        10         5       -1.260917e+00
        11         5       -1.606813e+00
        12         5       -1.138040e+00
        13         5        9.218761e-01
        14         5       -8.572554e-01
        15         5       -1.005664e-01
        16         5       -1.430027e-01
        17         5        5.076747e-01
        18         5        1.437248e+00
        19         5       -4.930812e-01
        20         5       -7.078351e-01
        21         5        8.203895e-01
        22         5       -1.030341e+00
        23         5       -1.267313e+00
        24         5        1.487901e-01
        25         5       -1.107436e+00
        26         5       -1.284992e+00
        27         5       -1.759147e-01
        28         5        2.056325e+00
        29         5       -8.653365e-02
        30         5       -9.028009e-01
        31         5        3.380523e-01
        32         5       -1.963394e-01
        33         5        3.883272e-01
        34         5        1.363231e+00
        35         5       -9.503816e-01
        36         5        6.085770e-01
        37         5       -2.628807e-01
        38         5        7.140602e-01
        39         5       -2.937253e-01
        40         5        2.354848e-01
        41         5        9.218401e-01
        42         5       -1.534726e-01
        43         5       -6.110280e-01
        44         5        1.020359e+00
        45         5        5.198265e-01
        46         5        3.898468e-01
        47         5       -4.126554e-01
        48         5       -8.032121e-01
        49         5        1.228215e+00
        50         5        1.247759e+00
        51         5        1.323984e+00
        52         5       -4.313124e-01
        53         5        1.439574e+00
        54         5        3.344152e-01
        55         5       -5.185463e-01
        56         5        2.526961e-01
        57         5        3.609632e-01
        58         5       -7.887509e-01
        59         5       -1.697744e+00
        60         5       -5.857257e-01
        61         5        7.121524e-01
        62         5        8.083583e-01
        63         5       -8.016204e-01
        64         5       -5.099921e-01
        65         5       -2.101473e-01
        66         5       -1.636060e-01
        67         5       -1.727109e+00
        68         5        7.180897e-03
        69         5        7.266912e-01
        70         5        1.952921e-01
        71         5        6.901115e-02
        72         5        1.620307e+00
        73         5       -5.609001e-01
        74         5       -3.500903e-01
        75         5        8.458640e-03
        76         5        6.586191e-01
        77         5       -3.044170e-01
        78         5       -7.261280e-01
        79         5       -8.930920e-01
        80         5        4.704322e-01
        81         5       -4.515505e-01
        82         5       -1.240618e-03
        83         5       -1.266524e+00
        84         5       -2.494610e-01
        85         5        5.367466e-02
        86         5       -1.465788e-01
        87         5        1.537327e+00
        88         5       -6.320998e-01
        89         5       -6.167267e-01
        90         5       -6.910950e-01
        91         5       -2.509511e+00
        92         5       -2.457516e-01
        93         5       -3.904116e-01
        94         5       -8.505755e-02
        95         5        4.412135e-01
        96         5       -1.623423e+00
        97         5        4.209016e-01
        98         5       -8.599851e-01
        99         5       -4.893330e-01
       100         5       -1.668669e-01
;

param theta:=
    1        3.613388e-03
    2        1.499475e+00
    3       -6.364618e-01
    4        1.485954e+00
    5       -1.474255e+00
;
param X_true:=
    1        2.096904e+00
    2       -3.056958e-02
    3       -1.507697e+00
    4       -2.445135e+00
    5        1.750566e+00
    6        8.723191e-01
    7        1.670813e+00
    8        2.233677e+00
    9       -3.194183e-01
   10        5.611031e+00
   11        3.145914e+00
   12        2.846137e+00
   13       -2.389960e+00
   14       -1.093497e+00
   15       -2.957595e+00
   16       -2.122050e+00
   17        1.277547e+00
   18       -3.723954e-01
   19        2.748519e+00
   20       -1.817278e-01
   21       -4.565722e+00
   22        2.008214e+00
   23        2.583644e+00
   24        5.094319e+00
   25        1.237466e+00
   26        2.313914e+00
   27        2.067267e+00
   28       -2.589147e+00
   29       -2.803458e+00
   30        3.127592e+00
   31        1.679325e-01
   32        4.578681e+00
   33        6.658261e-01
   34       -1.456060e+00
   35        3.078936e+00
   36       -1.371584e+00
   37       -2.932686e+00
   38        8.311868e-01
   39        2.718568e+00
   40       -6.827699e-01
   41        8.866483e-02
   42        4.259674e-01
   43        1.182059e+00
   44        3.429353e+00
   45        3.413263e-01
   46       -1.275258e+00
   47       -6.056058e-01
   48        3.140930e+00
   49       -5.112706e+00
   50       -5.332048e+00
   51       -2.290200e+00
   52       -1.034143e+00
   53        2.002400e+00
   54        9.697042e-01
   55        8.031124e-01
   56        1.940010e+00
   57       -3.690428e+00
   58        5.051308e+00
   59       -1.045724e+00
   60        7.294038e-01
   61       -2.892656e+00
   62        3.948955e-01
   63       -6.486946e-02
   64       -2.423264e+00
   65        3.122853e+00
   66        1.562599e+00
   67        2.311067e+00
   68       -4.274267e+00
   69       -7.906670e-01
   70       -1.029811e+00
   71        3.282032e+00
   72        2.383272e+00
   73        1.412427e+00
   74       -2.349822e+00
   75       -8.505487e-01
   76       -6.433461e-01
   77        1.544424e+00
   78        1.509172e+00
   79        2.235299e-01
   80        1.811542e+00
   81        8.591218e-01
   82       -1.670001e+00
   83        1.668705e+00
   84       -4.179752e+00
   85        2.776594e+00
   86       -3.137833e-01
   87       -4.522098e+00
   88        5.027971e-01
   89        1.081509e+00
   90        8.476224e-01
   91        6.657787e+00
   92       -7.002664e-01
   93        4.803076e-01
   94        6.497181e-01
   95       -4.490955e+00
   96        3.379226e+00
   97        1.705692e+00
   98        1.712642e+00
   99       -7.301269e-01
  100        1.338889e+00
;
param X:=
    1        1.386348e+00
    2       -3.056958e-02
    3        2.110385e-01
    4       -3.683608e-01
    5        9.866437e-02
    6       -2.933492e-01
    7       -5.802345e-01
    8        2.233677e+00
    9       -3.194183e-01
   10        1.056880e+00
   11        4.384367e-01
   12        2.846137e+00
   13        1.430384e-01
   14       -1.093497e+00
   15        3.107439e-01
   16        1.170985e+00
   17       -6.808359e-01
   18       -2.295445e-01
   19       -4.022576e-01
   20        6.527331e-01
   21       -2.506710e-01
   22       -1.179729e+00
   23        1.337517e+00
   24        1.211176e+00
   25        2.510464e-01
   26       -9.621616e-01
   27        5.118017e-01
   28       -1.330748e+00
   29        1.582132e+00
   30        1.710337e+00
   31        1.599610e+00
   32        2.713844e+00
   33        7.458741e-01
   34        9.398418e-01
   35        3.078936e+00
   36       -1.371584e+00
   37       -2.932686e+00
   38       -3.534772e-01
   39       -2.773635e+00
   40        1.401642e-01
   41        1.601726e+00
   42       -1.972309e+00
   43       -5.189796e-02
   44        7.166100e-01
   45        3.413263e-01
   46       -1.275258e+00
   47       -6.056058e-01
   48        3.140930e+00
   49        4.227418e-01
   50       -5.332048e+00
   51       -5.822027e-01
   52       -1.758268e-01
   53        2.002400e+00
   54       -1.299627e+00
   55       -3.285940e-01
   56        1.940010e+00
   57        6.507789e-02
   58        3.742933e-01
   59       -1.045724e+00
   60        2.691027e-01
   61       -2.892656e+00
   62        3.244134e-01
   63       -6.167594e-01
   64       -1.307108e+00
   65       -1.630760e+00
   66       -3.871093e-01
   67        2.311067e+00
   68       -4.274267e+00
   69       -1.048831e-01
   70       -6.003153e-01
   71       -9.791598e-01
   72       -8.474440e-01
   73        1.412427e+00
   74       -1.251373e+00
   75        7.020657e-01
   76       -6.433461e-01
   77        7.404393e-01
   78        1.509172e+00
   79        2.235299e-01
   80       -7.092408e-01
   81        8.591218e-01
   82       -1.670001e+00
   83        1.668705e+00
   84        1.713754e+00
   85        1.074373e+00
   86       -3.135398e-01
   87       -1.635638e+00
   88       -2.232494e+00
   89        1.081509e+00
   90        8.984903e-01
   91        6.657787e+00
   92       -7.002664e-01
   93       -4.402967e-01
   94        1.142922e+00
   95        6.575653e-01
   96       -1.060108e+00
   97        5.138463e-01
   98       -7.372531e-01
   99       -7.301269e-01
  100       -6.436929e-02
;
param outliervec:=
    1    1
    2    0
    3    1
    4    1
    5    1
    6    1
    7    1
    8    0
    9    0
   10    1
   11    1
   12    0
   13    1
   14    0
   15    1
   16    1
   17    1
   18    1
   19    1
   20    1
   21    1
   22    1
   23    1
   24    1
   25    1
   26    1
   27    1
   28    1
   29    1
   30    1
   31    1
   32    1
   33    1
   34    1
   35    0
   36    0
   37    0
   38    1
   39    1
   40    1
   41    1
   42    1
   43    1
   44    1
   45    0
   46    0
   47    0
   48    0
   49    1
   50    0
   51    1
   52    1
   53    0
   54    1
   55    1
   56    0
   57    1
   58    1
   59    0
   60    1
   61    0
   62    1
   63    1
   64    1
   65    1
   66    1
   67    0
   68    0
   69    1
   70    1
   71    1
   72    1
   73    0
   74    1
   75    1
   76    0
   77    1
   78    0
   79    0
   80    1
   81    0
   82    0
   83    0
   84    1
   85    1
   86    1
   87    1
   88    1
   89    0
   90    1
   91    0
   92    0
   93    1
   94    1
   95    1
   96    1
   97    1
   98    1
   99    0
  100    1
;